(set-logic HORN)
(declare-fun assign_25_5_199_abs01 (Int Int Int Int Int Int) Bool)
(declare-fun assert_24_5_190_abs01 (Int Int Int Int Int Int) Bool)
(declare-fun assert_23_12_172_abs01 (Int Int Int Int Int Int) Bool)
(declare-fun while_22_1_202_abs01 (Int Int Int Int Int Int) Bool)
(declare-fun assign_21_1_131_abs01 (Int Int Int Int Int Int) Bool)
(declare-fun assign_18_5_122_abs01 (Int Int Int Int Int Int) Bool)
(declare-fun arrayassign_17_5_113_abs01 (Int Int Int Int Int Int) Bool)
(declare-fun assert_16_12_99_abs01 (Int Int Int Int Int Int) Bool)
(declare-fun while_15_1_125_abs01 (Int Int Int Int Int Int) Bool)
(declare-fun assign_14_1_58_abs01 (Int Int Int Int Int Int) Bool)
(declare-fun assign_12_1_52_abs01 (Int Int Int Int Int Int) Bool)
(declare-fun end_abs01 (Int Int Int Int Int Int) Bool)
(declare-fun start_abs01 (Int Int Int Int Int Int) Bool)
(assert (forall ((a_copy (Array Int Int)) (a (Array Int Int)) (N Int) (i Int) (vabs_f_f Int) (vabs_s_f_f Int)) (start_abs01 vabs_f_f (select a_copy vabs_f_f) vabs_s_f_f (select a vabs_s_f_f) N i)))
(assert (forall ((i Int) (N Int) (a (Array Int Int)) (a_copy (Array Int Int)) (vabs_0_f_f Int) (vabs_0_s_f_f Int)) (=> (start_abs01 vabs_0_f_f (select a_copy vabs_0_f_f) vabs_0_s_f_f (select a vabs_0_s_f_f) N i) (assign_12_1_52_abs01 vabs_0_f_f (select a_copy vabs_0_f_f) vabs_0_s_f_f (select a vabs_0_s_f_f) N i))))
(assert (forall ((rnd Int) (i Int) (N Int) (a (Array Int Int)) (a_copy (Array Int Int)) (vabs_0_f_f Int) (vabs_0_s_f_f Int)) (=> (assign_12_1_52_abs01 vabs_0_f_f (select a_copy vabs_0_f_f) vabs_0_s_f_f (select a vabs_0_s_f_f) N i) (assign_14_1_58_abs01 vabs_0_f_f (select a_copy vabs_0_f_f) vabs_0_s_f_f (select a vabs_0_s_f_f) rnd i))))
(assert (forall ((i Int) (N Int) (a (Array Int Int)) (a_copy (Array Int Int)) (vabs_0_f_f Int) (vabs_0_s_f_f Int)) (=> (assign_14_1_58_abs01 vabs_0_f_f (select a_copy vabs_0_f_f) vabs_0_s_f_f (select a vabs_0_s_f_f) N i) (while_15_1_125_abs01 vabs_0_f_f (select a_copy vabs_0_f_f) vabs_0_s_f_f (select a vabs_0_s_f_f) N 0))))
(assert (forall ((a_copy (Array Int Int)) (a (Array Int Int)) (N Int) (i Int) (vabs_0_f_f Int) (vabs_0_s_f_f Int)) (=> (and (while_15_1_125_abs01 vabs_0_f_f (select a_copy vabs_0_f_f) vabs_0_s_f_f (select a vabs_0_s_f_f) N i) (< i N)) (assert_16_12_99_abs01 vabs_0_f_f (select a_copy vabs_0_f_f) vabs_0_s_f_f (select a vabs_0_s_f_f) N i))))
(assert (forall ((a_copy (Array Int Int)) (a (Array Int Int)) (N Int) (i Int) (vabs_0_f_f Int) (vabs_0_s_f_f Int)) (=> (and (while_15_1_125_abs01 vabs_0_f_f (select a_copy vabs_0_f_f) vabs_0_s_f_f (select a vabs_0_s_f_f) N i) (not (< i N))) (assign_21_1_131_abs01 vabs_0_f_f (select a_copy vabs_0_f_f) vabs_0_s_f_f (select a vabs_0_s_f_f) N i))))
(assert (forall ((k Int) (i Int) (N Int) (a (Array Int Int)) (a_copy (Array Int Int))) (=> (and (assert_16_12_99_abs01 k (select a_copy k) k (select a k) N i) (<= 0 k) (< k i)) (= (select a_copy k) (select a k)))))
(assert (forall ((i Int) (N Int) (a (Array Int Int)) (a_copy (Array Int Int)) (vabs_0_f_f Int) (vabs_0_s_f_f Int)) (=> (assert_16_12_99_abs01 vabs_0_f_f (select a_copy vabs_0_f_f) vabs_0_s_f_f (select a vabs_0_s_f_f) N i) (arrayassign_17_5_113_abs01 vabs_0_f_f (select a_copy vabs_0_f_f) vabs_0_s_f_f (select a vabs_0_s_f_f) N i))))
(assert (forall ((i Int) (N Int) (a (Array Int Int)) (a_copy (Array Int Int)) (vabs_0_f_f Int) (vabs_0_s_f_f Int)) (=> (and (arrayassign_17_5_113_abs01 vabs_0_f_f (select a_copy vabs_0_f_f) vabs_0_s_f_f (select a vabs_0_s_f_f) N i) (arrayassign_17_5_113_abs01 vabs_0_f_f (select a_copy vabs_0_f_f) i (select a i) N i)) (assign_18_5_122_abs01 vabs_0_f_f (select (store a_copy i (select a i)) vabs_0_f_f) vabs_0_s_f_f (select a vabs_0_s_f_f) N i))))
(assert (forall ((i Int) (N Int) (a (Array Int Int)) (a_copy (Array Int Int)) (vabs_0_f_f Int) (vabs_0_s_f_f Int)) (=> (assign_18_5_122_abs01 vabs_0_f_f (select a_copy vabs_0_f_f) vabs_0_s_f_f (select a vabs_0_s_f_f) N i) (while_15_1_125_abs01 vabs_0_f_f (select a_copy vabs_0_f_f) vabs_0_s_f_f (select a vabs_0_s_f_f) N (+ i 1)))))
(assert (forall ((i Int) (N Int) (a (Array Int Int)) (a_copy (Array Int Int)) (vabs_0_f_f Int) (vabs_0_s_f_f Int)) (=> (assign_21_1_131_abs01 vabs_0_f_f (select a_copy vabs_0_f_f) vabs_0_s_f_f (select a vabs_0_s_f_f) N i) (while_22_1_202_abs01 vabs_0_f_f (select a_copy vabs_0_f_f) vabs_0_s_f_f (select a vabs_0_s_f_f) N 0))))
(assert (forall ((a_copy (Array Int Int)) (a (Array Int Int)) (N Int) (i Int) (vabs_0_f_f Int) (vabs_0_s_f_f Int)) (=> (and (while_22_1_202_abs01 vabs_0_f_f (select a_copy vabs_0_f_f) vabs_0_s_f_f (select a vabs_0_s_f_f) N i) (< i N)) (assert_23_12_172_abs01 vabs_0_f_f (select a_copy vabs_0_f_f) vabs_0_s_f_f (select a vabs_0_s_f_f) N i))))
(assert (forall ((a_copy (Array Int Int)) (a (Array Int Int)) (N Int) (i Int) (vabs_0_f_f Int) (vabs_0_s_f_f Int)) (=> (and (while_22_1_202_abs01 vabs_0_f_f (select a_copy vabs_0_f_f) vabs_0_s_f_f (select a vabs_0_s_f_f) N i) (not (< i N))) (end_abs01 vabs_0_f_f (select a_copy vabs_0_f_f) vabs_0_s_f_f (select a vabs_0_s_f_f) N i))))
(assert (forall ((k Int) (i Int) (N Int) (a (Array Int Int)) (a_copy (Array Int Int))) (=> (and (assert_23_12_172_abs01 k (select a_copy k) k (select a k) N i) (<= 0 k) (< k N)) (= (select a_copy k) (select a k)))))
(assert (forall ((i Int) (N Int) (a (Array Int Int)) (a_copy (Array Int Int)) (vabs_0_f_f Int) (vabs_0_s_f_f Int)) (=> (assert_23_12_172_abs01 vabs_0_f_f (select a_copy vabs_0_f_f) vabs_0_s_f_f (select a vabs_0_s_f_f) N i) (assert_24_5_190_abs01 vabs_0_f_f (select a_copy vabs_0_f_f) vabs_0_s_f_f (select a vabs_0_s_f_f) N i))))
(assert (forall ((i Int) (N Int) (a (Array Int Int)) (a_copy (Array Int Int))) (=> (assert_24_5_190_abs01 i (select a_copy i) i (select a i) N i) (= (select a_copy i) (select a i)))))
(assert (forall ((i Int) (N Int) (a (Array Int Int)) (a_copy (Array Int Int)) (vabs_0_f_f Int) (vabs_0_s_f_f Int)) (=> (assert_24_5_190_abs01 vabs_0_f_f (select a_copy vabs_0_f_f) vabs_0_s_f_f (select a vabs_0_s_f_f) N i) (assign_25_5_199_abs01 vabs_0_f_f (select a_copy vabs_0_f_f) vabs_0_s_f_f (select a vabs_0_s_f_f) N i))))
(assert (forall ((i Int) (N Int) (a (Array Int Int)) (a_copy (Array Int Int)) (vabs_0_f_f Int) (vabs_0_s_f_f Int)) (=> (assign_25_5_199_abs01 vabs_0_f_f (select a_copy vabs_0_f_f) vabs_0_s_f_f (select a vabs_0_s_f_f) N i) (while_22_1_202_abs01 vabs_0_f_f (select a_copy vabs_0_f_f) vabs_0_s_f_f (select a vabs_0_s_f_f) N (+ i 1)))))
(check-sat)